0 66
65 37
64 43
50 17
58 59
0 2
70 49
17 24
46 20
38 30
90 70
99 81
18 89
43 79
11 52
98 4
96 25
66 63
37 86
73 52
27 10
7 95
0 99
79 68
30 58
83 16
47 55
42 41
51 14
92 3
85 19
81 32
13 51
62 50
15 7
71 91
6 78
78 58
71 91
91 61
48 33
71 86
6 60
14 48
7 22
31 66
39 86
26 95
9 64
30 91
9 2
70 90
89 75
50 27
4 18
79 51
45 78
79 76
44 85
72 68
14 4
92 31
92 30
26 70
94 41
56 54
28 66
96 21
69 35
86 76
38 76
64 58
19 40
17 69
0 98
95 99
25 16
24 36
92 15
97 99
63 9
70 23
71 81
82 88
94 57
55 71
50 9
61 67
51 27
56 46
95 3
93 36
42 55
74 58
73 77
18 0
83 45
23 89
19 25
16 52
